50 69 94 31 98 6 30 20 14 57 61 1 43 24 10 52 0 83 64 54 29 96 56 40 33 7 84 85 19 46 35 11 86 65 89 39 9 21 28 23 37 17 59 97 81 42 18 70 75 67 12 16 38 15 27 62 93 2 74 66 60 92 58 26 41 71 55 4 3 25 63 45 48 49 8 22 82 80 77 44 47 51 53 32 78 5 76 79 34 88 90 13 73 87 36 91 99 68 95 72 

